87 95 
74 33 
77 34 
4 52 
94 54 
29 81 
99 5 
80 58 
49 98 
90 60 
74 82 
93 1 
60 29 
78 81 
20 46 
21 60 
94 95 
93 71 
82 49 
75 76 
4 4 
9 55 
9 41 
14 58 
92 56 
71 66 
39 64 
67 51 
93 97 
84 66 
43 5 
26 37 
53 71 
61 35 
20 36 
63 76 
93 73 
84 2 
66 50 
13 10 
6 84 
76 97 
48 95 
1 94 
44 85 
60 88 
91 38 
77 44 
9 90 
31 81 
